Executando Fernandes MODIFICADO
Rodando pra 1h
Optimize a model with 135 rows, 140 columns and 1716 nonzeros
Coefficient statistics:
  Matrix range    [1e+00, 1e+07]
  Objective range [2e-01, 2e-01]
  Bounds range    [1e+00, 1e+07]
  RHS range       [1e+00, 4e+00]
Found heuristic solution: objective 303
Presolve removed 56 rows and 65 columns
Presolve time: 0.00s
Presolved: 79 rows, 75 columns, 771 nonzeros
Variable types: 20 continuous, 55 integer (50 binary)

Root relaxation: objective 1.352652e+01, 46 iterations, 0.00 seconds

    Nodes    |    Current Node    |     Objective Bounds      |     Work
 Expl Unexpl |  Obj  Depth IntInf | Incumbent    BestBd   Gap | It/Node Time

     0     0   13.52652    0   27  303.00000   13.52652  95.5%     -    0s
H    0     0                     248.0000000   13.52652  94.5%     -    0s
     0     0   36.93858    0   40  248.00000   36.93858  85.1%     -    0s
H    0     0                     233.0000000   36.93858  84.1%     -    0s
H    0     0                     222.8000000   36.93858  83.4%     -    0s
     0     0   37.10335    0   40  222.80000   37.10335  83.3%     -    0s
     0     0   48.41668    0   40  222.80000   48.41668  78.3%     -    0s
     0     0   52.07840    0   32  222.80000   52.07840  76.6%     -    0s
     0     0   55.56846    0   40  222.80000   55.56846  75.1%     -    0s
     0     0   56.29448    0   39  222.80000   56.29448  74.7%     -    0s
     0     0   68.67388    0   44  222.80000   68.67388  69.2%     -    0s
H    0     0                     202.8000000   68.67388  66.1%     -    0s
     0     0   70.51328    0   48  202.80000   70.51328  65.2%     -    0s
     0     0   72.23618    0   46  202.80000   72.23618  64.4%     -    0s
     0     0   72.69958    0   46  202.80000   72.69958  64.2%     -    0s
     0     0   73.92704    0   50  202.80000   73.92704  63.5%     -    0s
     0     0   74.94270    0   50  202.80000   74.94270  63.0%     -    0s
     0     0   75.79243    0   49  202.80000   75.79243  62.6%     -    0s
     0     0   75.93936    0   48  202.80000   75.93936  62.6%     -    0s
     0     0   77.22640    0   49  202.80000   77.22640  61.9%     -    0s
     0     0   77.37711    0   49  202.80000   77.37711  61.8%     -    0s
     0     0   77.70667    0   47  202.80000   77.70667  61.7%     -    0s
     0     0   77.92169    0   48  202.80000   77.92169  61.6%     -    0s
     0     0   78.27133    0   48  202.80000   78.27133  61.4%     -    0s
     0     0   78.27133    0   48  202.80000   78.27133  61.4%     -    0s
     0     2   78.57408    0   47  202.80000   78.57408  61.3%     -    0s
*  333   121              13     202.6000000   90.67958  55.2%  11.1    0s
*  335   118              14     200.8000000   90.67958  54.8%  11.1    0s
* 1032   262              13     200.6000000  119.84392  40.3%   9.9    0s
* 1107   271              13     196.8000000  121.83551  38.1%   9.8    0s
* 1110   268              14     196.6000000  121.83551  38.0%   9.8    0s
* 1170   266              11     192.4000000  123.73397  35.7%   9.7    0s
* 1174   243              12     183.2000000  123.73397  32.5%   9.7    0s
* 2361   146              12     179.2000000  151.74409  15.3%   8.7    0s
* 2364   144              13     179.0000000  151.74409  15.2%   8.7    0s
* 2676    30              11     176.2000000  170.40000  3.29%   8.5    1s
* 2679    27              12     176.0000000  171.27633  2.68%   8.4    1s

Cutting planes:
  Gomory: 3
  MIR: 173
  Flow cover: 51
  Flow path: 5
  Zero half: 2
  Network: 9

Explored 2711 nodes (23305 simplex iterations) in 1.10 seconds
Thread count was 1 (of 4 available processors)

Optimal solution found (tolerance 1.00e-04)
Best objective 1.760000000000e+02, best bound 1.760000000000e+02, gap 0.0%
Tempo: 1.08 segundos

0 2 0 56 76 17 79 26 30 26 71 6 
1 3 0 76 0 78 14 12 64 42 12 6 
1 4 72 36 15 48 32 49 71 20 20 90 
2 3 70 27 51 19 21 60 65 58 30 28 
(142 195 142 162 146 147 230 146 133 130 )

